10
0 270 3179 2991 2840 3031 3421 3738 4947 6226 
270 0 2903 2715 2564 2755 3144 4153 5362 6641
3188 2912 0 504 655 908 1299 2237 3446 3682
2991 2715 504 0 151 423 723 2040 3249 3485
2840 2564 655 151 0 272 571 1888 3098 3334 
3031 2755 908 391 240 0 241 1560 2770 3006 
3421 3144 1299 723 571 241 0 1617 2827 3063 
3731 4146 2250 2053 1902 1718 2935 0 1274 1510 
4940 5355 4390 4217 4066 3711 3466 1274 0 236 
5792 6207 4154 3981 3830 3475 3230 1470 236 0 
